40
    71    58    89    62     8    31    74    52    71    85     1    77    35    30    96    12     4    29    64    34     8    98    86    22     6     6    24    61    86    76    17    36    63    83    81    37    80    56    11    57
     6     3     9     3     8     8     3     8    10     4     7     8    10     5     5     6     5    10     3     6     9     4     3     2     7    10     6    10     9     3     2     6     6     9    10     9     7     5     5     6
  1419  1682  1683  1617  1703  1549  1741  1634  1580  1588  1694  1574  1548  1730  1535  1438  1501  1504  1587  1687  1472  1507  1389  1454  1404  1522  1526  1681  1506  1584  1720  1767  1621  1677  1487  1513  1591  1620  1771  1712
